(set-info :smt-lib-version 2.6)
(set-logic UFLIA)
(set-info :source |
Generated by: Geoff Sutcliffe
Generated on: 2026-03-11
Generator: TPTPWorld
Application: Benchmarking automated theorem provers
Time limit: 120.0

These benchmarks are translations from the TPTP Library (Thousands of
Problems for Theorem Provers), see http://www.cs.miami.edu/~tptp/

The TPTP is maintained by Geoff Sutcliffe, and he contributed this
selection of benchmarks to SMT-LIB.  They were exported from the
v9.2.1 realease of TPTP.
|)
(set-info :category "industrial")
(set-info :status "unknown")
; SZS status Success
(declare-sort $$unsorted 0)

(declare-sort tptp.data 0)
(declare-sort tptp.array 0)
(declare-fun tptp.mkarray () tptp.array)
(declare-fun tptp.none () tptp.data)
(declare-fun tptp.put (tptp.array Int tptp.data) tptp.array)
(declare-fun tptp.get (tptp.array Int) tptp.data)
(assert (forall ((M Int)) (= (tptp.get tptp.mkarray M) tptp.none)))
(assert (forall ((Ar tptp.array) (M Int) (D tptp.data)) (= (tptp.get (tptp.put Ar M D) M) D)))
(assert (forall ((N Int) (D tptp.data) (Ar tptp.array) (M Int)) (=> (not (= M N)) (= (tptp.get (tptp.put Ar N D) M) (tptp.get Ar M)))))
(assert (forall ((D2 tptp.data) (Ar tptp.array) (M Int) (D1 tptp.data)) (= (tptp.put (tptp.put Ar M D2) M D1) (tptp.put Ar M D1))))
(assert (forall ((Ar tptp.array) (Ar0 tptp.array)) (= (= Ar Ar0) (forall ((N Int)) (= (tptp.get Ar N) (tptp.get Ar0 N))))))
(assert (not (forall ((D tptp.data) (Ar tptp.array) (N Int) (M Int)) (or (= (tptp.get (tptp.put Ar M D) N) (tptp.get Ar N)) (not (< N M))))))
(check-sat)
